data/lp_files/q3/46_2.lp
\ Model foo
\ LP format - for model browsing. Use MPS format to capture full model detail.
Minimize
  z
Subject To
 allocateEach[1]: x[1,1] + x[2,1] + x[3,1] = 1
 allocateEach[2]: x[1,2] + x[2,2] + x[3,2] = 1
 allocateEach[3]: x[1,3] + x[2,3] + x[3,3] = 1
 allocateEach[4]: x[1,4] + x[2,4] + x[3,4] = 1
 allocateEach[5]: x[1,5] + x[2,5] + x[3,5] = 1
 allocateEach[6]: x[1,6] + x[2,6] + x[3,6] = 1
 allocateAllCash: cashProportion[1] + cashProportion[2] + cashProportion[3]
   = 1
 findWorstP[1,2]: z + 0.0661171596068233 cashProportion[1]
   - 0.0661171596068233 cashProportion[2] + 0.0614889584343457 x[1,1]
   + 0.4397231894917795 x[1,2] + 0.085687838850443 x[1,3]
   + 0.0557588046017543 x[1,4] + 0.0354387975492573 x[1,5]
   + 0.2557852514655971 x[1,6] - 0.0614889584343457 x[2,1]
   - 0.4397231894917795 x[2,2] - 0.085687838850443 x[2,3]
   - 0.0557588046017543 x[2,4] - 0.0354387975492573 x[2,5]
   - 0.2557852514655971 x[2,6] >= 0
 findWorstP[1,3]: z + 0.0661171596068233 cashProportion[1]
   - 0.0661171596068233 cashProportion[3] + 0.0614889584343457 x[1,1]
   + 0.4397231894917795 x[1,2] + 0.085687838850443 x[1,3]
   + 0.0557588046017543 x[1,4] + 0.0354387975492573 x[1,5]
   + 0.2557852514655971 x[1,6] - 0.0614889584343457 x[3,1]
   - 0.4397231894917795 x[3,2] - 0.085687838850443 x[3,3]
   - 0.0557588046017543 x[3,4] - 0.0354387975492573 x[3,5]
   - 0.2557852514655971 x[3,6] >= 0
 findWorstP[2,1]: z - 0.0416054142512412 cashProportion[1]
   + 0.0416054142512412 cashProportion[2] - 0.0632124927190525 x[1,1]
   - 0.0729758965966771 x[1,2] - 0.1645078079494078 x[1,3]
   - 0.1865586775025656 x[1,4] - 0.2022577871467006 x[1,5]
   - 0.2688819238343549 x[1,6] + 0.0632124927190525 x[2,1]
   + 0.0729758965966771 x[2,2] + 0.1645078079494078 x[2,3]
   + 0.1865586775025656 x[2,4] + 0.2022577871467006 x[2,5]
   + 0.2688819238343549 x[2,6] >= 0
 findWorstP[2,3]: z + 0.0416054142512412 cashProportion[2]
   - 0.0416054142512412 cashProportion[3] + 0.0632124927190525 x[2,1]
   + 0.0729758965966771 x[2,2] + 0.1645078079494078 x[2,3]
   + 0.1865586775025656 x[2,4] + 0.2022577871467006 x[2,5]
   + 0.2688819238343549 x[2,6] - 0.0632124927190525 x[3,1]
   - 0.0729758965966771 x[3,2] - 0.1645078079494078 x[3,3]
   - 0.1865586775025656 x[3,4] - 0.2022577871467006 x[3,5]
   - 0.2688819238343549 x[3,6] >= 0
 findWorstP[3,1]: z - 0.0808015513897867 cashProportion[1]
   + 0.0808015513897867 cashProportion[3] - 0.0553759965524672 x[1,1]
   - 0.1854126265890972 x[1,2] - 0.2673992673992674 x[1,3]
   - 0.15530058177117 x[1,4] - 0.2248976513682396 x[1,5]
   - 0.030812324929972 x[1,6] + 0.0553759965524672 x[3,1]
   + 0.1854126265890972 x[3,2] + 0.2673992673992674 x[3,3]
   + 0.15530058177117 x[3,4] + 0.2248976513682396 x[3,5]
   + 0.030812324929972 x[3,6] >= 0
 findWorstP[3,2]: z - 0.0808015513897867 cashProportion[2]
   + 0.0808015513897867 cashProportion[3] - 0.0553759965524672 x[2,1]
   - 0.1854126265890972 x[2,2] - 0.2673992673992674 x[2,3]
   - 0.15530058177117 x[2,4] - 0.2248976513682396 x[2,5]
   - 0.030812324929972 x[2,6] + 0.0553759965524672 x[3,1]
   + 0.1854126265890972 x[3,2] + 0.2673992673992674 x[3,3]
   + 0.15530058177117 x[3,4] + 0.2248976513682396 x[3,5]
   + 0.030812324929972 x[3,6] >= 0
Bounds
 z <= 1
 -infinity <= cashProportion[1] <= 1
 -infinity <= cashProportion[2] <= 1
 -infinity <= cashProportion[3] <= 1
Binaries
 x[1,1] x[1,2] x[1,3] x[1,4] x[1,5] x[1,6] x[2,1] x[2,2] x[2,3] x[2,4]
 x[2,5] x[2,6] x[3,1] x[3,2] x[3,3] x[3,4] x[3,5] x[3,6]
End
